(declare-fun bvlambda_19_ ()Bool         )
(declare-fun bvlambda_20_ () (_ BitVec 2))
(declare-fun a75 () (Array (_ BitVec 1) (_ BitVec 6)))
(assert
(let (($e4 (_ bv3032 13)))
(let (($e7 (_ bv0 11)))
(let (($e247 (concat bvlambda_20_ false       )))
(let (($e248 (concat $e247 false       )))
(let (($e249 (concat $e248 bvlambda_20_)))
(let (($e254 (store a75   false $e249)))
(let (($e272 (concat $e7 false       )))
(let (($e273 (concat $e272 bvlambda_19_)))
(let (($e274      (bvult $e273        $e4 )         ))
(let (($e276 (select $e254 (not   $e274))))
                  (bvult $e276 $e249)
                                                                                                                                                                                                                                                                                                                                                                                                                                                                                                                                                                                                                                                                                                                                                                                                                                                                                                                                                                                                                                                                              ) )))                 )    )))                                                                                                                                                                                                    )  )   )
